\ Model prob_28
\ LP format - for model browsing. Use MPS format to capture full model detail.
Minimize
  6 Chicken + 10 Pasta + Apples + 9 Tuna + 4 Rice
Subject To
 R0: 8 Chicken + 10 Pasta + 3 Apples + 16 Tuna + 4 Rice >= 93
 R1: 8 Chicken + 30 Pasta + 10 Apples + 29 Tuna + 24 Rice >= 181
 R2: 118 Chicken + 131 Pasta + 151 Apples + 235 Tuna + 101 Rice >= 1620
Bounds
Generals
 Chicken Pasta Apples Tuna Rice
End
